p cnf 237 551
1 0
-2 0
-3 0
-4 0
-5 0
-6 0
-7 0
-8 0
-9 0
-10 0
-11 0
1 -12 0
12 -1 0
13 14 0
15 14 0
-13 -15 -14 0
-2 14 -16 0
2 -14 -16 0
16 -14 -2 0
2 14 16 0
-16 0
17 18 0
19 18 0
-17 -19 -18 0
-15 18 -20 0
15 -18 -20 0
20 -18 -15 0
15 18 20 0
-20 0
17 21 0
22 21 0
-17 -22 -21 0
-19 21 -23 0
19 -21 -23 0
23 -21 -19 0
19 21 23 0
-23 0
24 25 0
26 25 0
-24 -26 -25 0
-3 25 -27 0
3 -25 -27 0
27 -25 -3 0
3 25 27 0
-27 0
2 28 0
29 28 0
-2 -29 -28 0
-26 28 -30 0
26 -28 -30 0
30 -28 -26 0
26 28 30 0
-30 0
31 32 0
33 32 0
-31 -33 -32 0
-4 32 -34 0
4 -32 -34 0
34 -32 -4 0
4 32 34 0
-34 0
35 36 0
37 36 0
-35 -37 -36 0
-33 36 -38 0
33 -36 -38 0
38 -36 -33 0
33 36 38 0
-38 0
39 40 0
41 40 0
-39 -41 -40 0
-37 40 -42 0
37 -40 -42 0
42 -40 -37 0
37 40 42 0
-42 0
43 44 0
45 44 0
-43 -45 -44 0
-41 44 -46 0
41 -44 -46 0
46 -44 -41 0
41 44 46 0
-46 0
47 48 0
49 48 0
-47 -49 -48 0
-45 48 -50 0
45 -48 -50 0
50 -48 -45 0
45 48 50 0
-50 0
39 51 0
43 51 0
47 51 0
52 51 0
-53 0
-49 51 -54 0
49 -51 -54 0
54 -51 -49 0
49 51 54 0
-54 0
55 56 0
57 56 0
-55 -57 -56 0
-5 56 -58 0
5 -56 -58 0
58 -56 -5 0
5 56 58 0
-58 0
59 60 0
61 60 0
-59 -61 -60 0
-57 60 -62 0
57 -60 -62 0
62 -60 -57 0
57 60 62 0
-62 0
63 64 0
65 64 0
-63 -65 -64 0
-61 64 -66 0
61 -64 -66 0
66 -64 -61 0
61 64 66 0
-66 0
67 68 0
69 68 0
-67 -69 -68 0
-65 68 -70 0
65 -68 -70 0
70 -68 -65 0
65 68 70 0
-70 0
71 72 0
73 72 0
-71 -73 -72 0
-69 72 -74 0
69 -72 -74 0
74 -72 -69 0
69 72 74 0
-74 0
63 75 0
67 75 0
71 75 0
76 75 0
-77 0
-73 75 -78 0
73 -75 -78 0
78 -75 -73 0
73 75 78 0
-78 0
79 80 0
81 80 0
-79 -81 -80 0
-6 80 -82 0
6 -80 -82 0
82 -80 -6 0
6 80 82 0
-82 0
83 84 0
85 84 0
-83 -85 -84 0
-81 84 -86 0
81 -84 -86 0
86 -84 -81 0
81 84 86 0
-86 0
1 87 0
88 87 0
-1 -88 -87 0
-85 87 -89 0
85 -87 -89 0
89 -87 -85 0
85 87 89 0
-89 0
90 91 0
92 91 0
-90 -92 -91 0
-7 91 -93 0
7 -91 -93 0
93 -91 -7 0
7 91 93 0
-93 0
94 95 0
96 95 0
-94 -96 -95 0
-92 95 -97 0
92 -95 -97 0
97 -95 -92 0
92 95 97 0
-97 0
98 99 0
100 99 0
-98 -100 -99 0
-96 99 -101 0
96 -99 -101 0
101 -99 -96 0
96 99 101 0
-101 0
102 103 0
104 103 0
-102 -104 -103 0
-100 103 -105 0
100 -103 -105 0
105 -103 -100 0
100 103 105 0
-105 0
106 107 0
108 107 0
-106 -108 -107 0
-104 107 -109 0
104 -107 -109 0
109 -107 -104 0
104 107 109 0
-109 0
102 110 0
106 110 0
111 110 0
-102 -106 -111 -110 0
-108 110 -112 0
108 -110 -112 0
112 -110 -108 0
108 110 112 0
-112 0
113 114 0
115 114 0
-113 -115 -114 0
-8 114 -116 0
8 -114 -116 0
116 -114 -8 0
8 114 116 0
-116 0
81 117 0
118 117 0
-81 -118 -117 0
-115 117 -119 0
115 -117 -119 0
119 -117 -115 0
115 117 119 0
-119 0
120 121 0
122 121 0
-120 -122 -121 0
-9 121 -123 0
9 -121 -123 0
123 -121 -9 0
9 121 123 0
-123 0
96 124 0
125 124 0
-96 -125 -124 0
-122 124 -126 0
122 -124 -126 0
126 -124 -122 0
122 124 126 0
-126 0
127 128 0
129 128 0
-127 -129 -128 0
-10 128 -130 0
10 -128 -130 0
130 -128 -10 0
10 128 130 0
-130 0
131 132 0
133 132 0
-131 -133 -132 0
-129 132 -134 0
129 -132 -134 0
134 -132 -129 0
129 132 134 0
-134 0
135 136 0
137 136 0
-135 -137 -136 0
-133 136 -138 0
133 -136 -138 0
138 -136 -133 0
133 136 138 0
-138 0
65 139 0
140 139 0
-65 -140 -139 0
-137 139 -141 0
137 -139 -141 0
141 -139 -137 0
137 139 141 0
-141 0
142 143 0
144 143 0
-142 -144 -143 0
-11 143 -145 0
11 -143 -145 0
145 -143 -11 0
11 143 145 0
-145 0
146 147 0
148 147 0
-146 -148 -147 0
-144 147 -149 0
144 -147 -149 0
149 -147 -144 0
144 147 149 0
-149 0
19 150 0
151 150 0
-19 -151 -150 0
-148 150 -152 0
148 -150 -152 0
152 -150 -148 0
148 150 152 0
-152 0
-12 153 -154 0
12 -153 -154 0
-12 -153 154 0
12 153 154 0
-154 0
-13 155 -156 0
13 -155 -156 0
-13 -155 156 0
13 155 156 0
-156 0
-17 157 -158 0
17 -157 -158 0
-17 -157 158 0
17 157 158 0
-158 0
-22 159 -160 0
22 -159 -160 0
-22 -159 160 0
22 159 160 0
-160 0
-24 161 -162 0
24 -161 -162 0
-24 -161 162 0
24 161 162 0
-162 0
-29 163 -164 0
29 -163 -164 0
-29 -163 164 0
29 163 164 0
-164 0
-31 165 -166 0
31 -165 -166 0
-31 -165 166 0
31 165 166 0
-166 0
-35 167 -168 0
35 -167 -168 0
-35 -167 168 0
35 167 168 0
-168 0
-39 169 -170 0
39 -169 -170 0
-39 -169 170 0
39 169 170 0
-170 0
-43 171 -172 0
43 -171 -172 0
-43 -171 172 0
43 171 172 0
-172 0
-47 173 -174 0
47 -173 -174 0
-47 -173 174 0
47 173 174 0
-174 0
-52 175 -176 0
52 -175 -176 0
-52 -175 176 0
52 175 176 0
-176 0
-55 177 -178 0
55 -177 -178 0
-55 -177 178 0
55 177 178 0
-178 0
-59 179 -180 0
59 -179 -180 0
-59 -179 180 0
59 179 180 0
-180 0
-63 181 -182 0
63 -181 -182 0
-63 -181 182 0
63 181 182 0
-182 0
-67 183 -184 0
67 -183 -184 0
-67 -183 184 0
67 183 184 0
-184 0
-71 185 -186 0
71 -185 -186 0
-71 -185 186 0
71 185 186 0
-186 0
-76 187 -188 0
76 -187 -188 0
-76 -187 188 0
76 187 188 0
-188 0
-79 189 -190 0
79 -189 -190 0
-79 -189 190 0
79 189 190 0
-190 0
-83 191 -192 0
83 -191 -192 0
-83 -191 192 0
83 191 192 0
-192 0
-88 193 -194 0
88 -193 -194 0
-88 -193 194 0
88 193 194 0
-194 0
-90 195 -196 0
90 -195 -196 0
-90 -195 196 0
90 195 196 0
-196 0
-94 197 -198 0
94 -197 -198 0
-94 -197 198 0
94 197 198 0
-198 0
-98 199 -200 0
98 -199 -200 0
-98 -199 200 0
98 199 200 0
-200 0
-102 201 -202 0
102 -201 -202 0
-102 -201 202 0
102 201 202 0
-202 0
-106 203 -204 0
106 -203 -204 0
-106 -203 204 0
106 203 204 0
-204 0
-111 205 -206 0
111 -205 -206 0
-111 -205 206 0
111 205 206 0
-206 0
-113 207 -208 0
113 -207 -208 0
-113 -207 208 0
113 207 208 0
-208 0
-118 209 -210 0
118 -209 -210 0
-118 -209 210 0
118 209 210 0
-210 0
-120 211 -212 0
120 -211 -212 0
-120 -211 212 0
120 211 212 0
-212 0
-125 213 -214 0
125 -213 -214 0
-125 -213 214 0
125 213 214 0
-214 0
-127 215 -216 0
127 -215 -216 0
-127 -215 216 0
127 215 216 0
-216 0
-131 217 -218 0
131 -217 -218 0
-131 -217 218 0
131 217 218 0
-218 0
-135 219 -220 0
135 -219 -220 0
-135 -219 220 0
135 219 220 0
-220 0
-140 221 -222 0
140 -221 -222 0
-140 -221 222 0
140 221 222 0
-222 0
-142 223 -224 0
142 -223 -224 0
-142 -223 224 0
142 223 224 0
-224 0
-146 225 -226 0
146 -225 -226 0
-146 -225 226 0
146 225 226 0
-226 0
-151 227 -228 0
151 -227 -228 0
-151 -227 228 0
151 227 228 0
-228 0
-229 -153 0
155 -229 0
157 -229 0
-229 -159 0
-229 -161 0
163 -229 0
-229 -165 0
-229 -167 0
169 -229 0
-229 -171 0
-229 -173 0
175 -229 0
177 -229 0
-229 -179 0
-229 -181 0
-229 -183 0
-229 -185 0
187 -229 0
-229 -189 0
-229 -191 0
193 -229 0
195 -229 0
-229 -197 0
-229 -199 0
201 -229 0
-229 -203 0
205 -229 0
207 -229 0
209 -229 0
-229 -211 0
213 -229 0
-229 -215 0
-229 -217 0
-229 -219 0
221 -229 0
223 -229 0
225 -229 0
-229 -227 0
229 0
-230 0
-231 0
-232 0
-233 0
-234 0
-235 0
-236 0
-237 0
